# Objective value = 36.999999999999915
xobj 36.999999999999915
x0_r1 -1.3250511798901243e-13
x1_r1 -0.0
x2_r1 -2.2065682614424986e-14
x3_r1 -2.2065682614424986e-14
y0_r1 -0.0
y1_r1 -0.0
y2_r1 -1.327549181695531e-13
y3_r1 -0.0
SH0_r1 -2.2065682614424986e-14
SL0_r1 -0.0
x4_r1 0.0
x5_r1 0.0
x6_r1 0.0
x7_r1 0.0
y4_r1 0.0
y5_r1 -1.8290924330699454e-14
y6_r1 -0.0
y7_r1 -8.007483565108942e-15
SH1_r1 -0.0
SL1_r1 -0.0
x8_r1 4.6351811278100286e-14
x9_r1 -0.0
x10_r1 -6.133635266358795e-14
x11_r1 -6.128084151235669e-14
y8_r1 1.4876988529977098e-14
y9_r1 -5.119377144424675e-13
y10_r1 -1.992850329202156e-13
y11_r1 1.6764367671839864e-14
SH2_r1 -6.128084151235669e-14
SL2_r1 -0.0
x12_r1 1.5276668818842154e-13
x13_r1 -3.1530333899354446e-14
x14_r1 -1.425526363618701e-13
x15_r1 -3.1530333899354446e-14
y12_r1 4.907185768843192e-14
y13_r1 -5.021885685074778e-13
y14_r1 -0.0
y15_r1 -8.659739592076221e-15
SH3_r1 -3.1530333899354446e-14
SL3_r1 -0.0
x16_r1 -0.0
x17_r1 -5.88418203051333e-15
x18_r1 -0.0
x19_r1 -0.0
y16_r1 0.0
y17_r1 0.0
y18_r1 5.88418203051333e-15
y19_r1 1.176836406102666e-14
SH4_r1 -0.0
SL4_r1 -0.0
x20_r1 -0.0
x21_r1 -0.0
x22_r1 0.0
x23_r1 -0.0
y20_r1 0.0
y21_r1 0.0
y22_r1 -0.0
y23_r1 -0.0
SH5_r1 -0.0
SL5_r1 -0.0
x24_r1 0.0
x25_r1 0.0
x26_r1 1.9317880628477724e-14
x27_r1 0.0
y24_r1 0.0
y25_r1 0.0
y26_r1 1.4876988529977098e-14
y27_r1 -0.0
SH6_r1 -0.0
SL6_r1 -0.0
x28_r1 -0.0
x29_r1 -0.0
x30_r1 -5.342948306008566e-15
x31_r1 -0.0
y28_r1 -1.7416623698807143e-15
y29_r1 0.0
y30_r1 -0.0
y31_r1 -8.354428260304303e-15
SH7_r1 -1.7416623698807143e-15
SL7_r1 -0.0
x32_r1 3.9190872769268026e-14
x33_r1 1.389999226830696e-13
x34_r1 9.026113190202523e-14
x35_r1 1.9451107391432743e-13
y32_r1 6.52811138479592e-14
y33_r1 -0.0
y34_r1 -2.220446049250313e-16
y35_r1 -0.0
SH8_r1 0.0
SL8_r1 -0.0
x36_r1 -0.0
x37_r1 -0.0
x38_r1 -0.0
x39_r1 -1.970645868709653e-14
y36_r1 -2.223221606811876e-14
y37_r1 -9.298117831235686e-16
y38_r1 -2.581268532253489e-15
y39_r1 0.0
SH9_r1 0.0
SL9_r1 -0.0
x40_r1 -0.0
x41_r1 -0.0
x42_r1 -0.0
x43_r1 -0.0
y40_r1 -0.0
y41_r1 -0.0
y42_r1 -0.0
y43_r1 -0.0
SH10_r1 -0.0
SL10_r1 -0.0
x44_r1 -0.0
x45_r1 -0.0
x46_r1 1.4654943925052066e-14
x47_r1 -0.0
y44_r1 -2.6201263381153694e-14
y45_r1 -3.863576125695545e-14
y46_r1 3.608224830031759e-15
y47_r1 3.608224830031759e-15
SH11_r1 3.608224830031759e-15
SL11_r1 -0.0
x48_r1 -0.0
x49_r1 -0.0
x50_r1 -6.17284001691587e-14
x51_r1 -6.17284001691587e-14
y48_r1 -0.0
y49_r1 -0.0
y50_r1 -0.0
y51_r1 -6.17284001691587e-14
SH12_r1 -6.17284001691587e-14
SL12_r1 -0.0
x52_r1 -0.0
x53_r1 -9.450773497121645e-15
x54_r1 -1.1546319456101628e-13
x55_r1 -1.412203687323199e-13
y52_r1 -0.0
y53_r1 -0.0
y54_r1 -1.36301226715519e-14
y55_r1 -7.682743330406083e-14
SH13_r1 -7.682743330406083e-14
SL13_r1 -0.0
x56_r1 -0.0
x57_r1 -0.0
x58_r1 1.0019762797242038e-14
x59_r1 3.382710778154774e-15
y56_r1 1.5640266859406893e-14
y57_r1 -1.6202317265623378e-15
y58_r1 2.3148150063434514e-14
y59_r1 4.714978407704962e-15
SH14_r1 3.382710778154774e-15
SL14_r1 -0.0
x60_r1 6.7113862788162025e-15
x61_r1 1.0
x62_r1 1.0
x63_r1 1.0000000000001537
y60_r1 -0.0
y61_r1 -0.0
y62_r1 -1.36301226715519e-14
y63_r1 1.0000000000001608
SH15_r1 1.0000000000001537
SL15_r1 -0.0
y0_r2 -0.0
y1_r2 -1.1246559239452836e-13
y2_r2 -0.0
y3_r2 -2.9753977059954195e-14
SH0_r2 -2.9753977059954195e-14
SL0_r2 -0.0
y4_r2 -0.0
y5_r2 -1.1246559239452836e-13
y6_r2 0.0
y7_r2 -1.004057947895376e-14
SH1_r2 -1.004057947895376e-14
SL1_r2 4.9987791683747673e-14
y8_r2 -0.0
y9_r2 -1.1246559239452836e-13
y10_r2 -3.3584246494910985e-15
y11_r2 3.9745984281580604e-14
SH2_r2 2.3953061756287752e-14
SL2_r2 1.0624834345662748e-13
y12_r2 -0.0
y13_r2 -1.1268763699945339e-13
y14_r2 0.0
y15_r2 -0.0
SH3_r2 -6.251943407420413e-15
SL3_r2 -0.0
y16_r2 -0.0
y17_r2 -5.689893001203927e-16
y18_r2 2.4966140266258208e-14
y19_r2 0.0
SH4_r2 -0.0
SL4_r2 -0.0
y20_r2 -0.0
y21_r2 -0.0
y22_r2 -0.0
y23_r2 0.0
SH5_r2 -0.0
SL5_r2 -0.0
y24_r2 -0.0
y25_r2 -0.0
y26_r2 5.1514348342607263e-14
y27_r2 1.0769163338864018e-14
SH6_r2 1.0769163338864018e-14
SL6_r2 -0.0
y28_r2 -0.0
y29_r2 0.0
y30_r2 -0.0
y31_r2 -0.0
SH7_r2 0.0
SL7_r2 -0.0
y32_r2 -0.0
y33_r2 -0.0
y34_r2 0.0
y35_r2 0.0
SH8_r2 -0.0
SL8_r2 -0.0
y36_r2 -0.0
y37_r2 2.0261570199409107e-15
y38_r2 -2.148281552649678e-14
y39_r2 -0.0
SH9_r2 -0.0
SL9_r2 -0.0
y40_r2 -0.0
y41_r2 -2.0261570199409107e-15
y42_r2 8.659739592076221e-15
y43_r2 0.0
SH10_r2 -0.0
SL10_r2 1.0061396160665481e-15
y44_r2 -0.0
y45_r2 4.829470157119431e-15
y46_r2 0.0
y47_r2 -0.0
SH11_r2 -0.0
SL11_r2 1.0033640585049852e-14
y48_r2 -0.0
y49_r2 1.7541523789077473e-14
y50_r2 -4.1522341120980855e-14
y51_r2 -0.0
SH12_r2 0.0
SL12_r2 -0.0
y52_r2 0.0
y53_r2 1.0880185641326534e-14
y54_r2 -0.0
y55_r2 0.0
SH13_r2 0.0
SL13_r2 -0.0
y56_r2 -0.0
y57_r2 -3.608224830031759e-15
y58_r2 -0.0
y59_r2 0.0
SH14_r2 0.0
SL14_r2 -0.0
y60_r2 1.0
y61_r2 -3.608224830031759e-15
y62_r2 3.7969627442180354e-14
y63_r2 1.0000000000001048
SH15_r2 1.0
SL15_r2 -1.2878587085651816e-13
y0_r3 -0.0
y1_r3 -0.0
y2_r3 -0.0
y3_r3 -0.0
SH0_r3 -0.0
SL0_r3 -0.0
y4_r3 -0.0
y5_r3 -0.0
y6_r3 -0.0
y7_r3 -0.0
SH1_r3 -0.0
SL1_r3 -0.0
y8_r3 -0.0
y9_r3 -0.0
y10_r3 -0.0
y11_r3 -0.0
SH2_r3 -0.0
SL2_r3 -0.0
y12_r3 1.0
y13_r3 0.0
y14_r3 0.0
y15_r3 1.0
SH3_r3 1.0
SL3_r3 0.0
y16_r3 -6.774580896262705e-13
y17_r3 4.829470157119431e-15
y18_r3 -0.0
y19_r3 -0.0
SH4_r3 -1.1268763699945339e-13
SL4_r3 -0.0
y20_r3 -2.1163626406917047e-16
y21_r3 -1.4155343563970746e-15
y22_r3 -2.1163626406917047e-16
y23_r3 -0.0
SH5_r3 -2.185751579730777e-16
SL5_r3 -2.185751579730777e-16
y24_r3 -0.0
y25_r3 -5.9396931817445875e-15
y26_r3 -0.0
y27_r3 -0.0
SH6_r3 -0.0
SL6_r3 -0.0
y28_r3 1.1546319456101628e-14
y29_r3 -2.914335439641036e-15
y30_r3 -5.2909066017292616e-17
y31_r3 -0.0
SH7_r3 -3.608224830031759e-15
SL7_r3 -0.0
y32_r3 1.0158540675320182e-14
y33_r3 -0.0
y34_r3 3.3584246494910985e-15
y35_r3 -0.0
SH8_r3 -0.0
SL8_r3 0.0
y36_r3 6.894484982922222e-14
y37_r3 -2.2870594307278225e-14
y38_r3 1.0391687510491465e-13
y39_r3 -0.0
SH9_r3 1.8485213360008856e-14
SL9_r3 -0.0
y40_r3 -8.282263763703668e-14
y41_r3 0.0
y42_r3 1.2434497875801753e-14
y43_r3 -0.0
SH10_r3 -0.0
SL10_r3 -0.0
y44_r3 -1.3322676295501878e-13
y45_r3 3.552713678800501e-14
y46_r3 1.474376176702208e-13
y47_r3 -0.0
SH11_r3 3.7969627442180354e-14
SL11_r3 -0.0
y48_r3 -1.7763568394002505e-14
y49_r3 2.55351295663786e-14
y50_r3 -4.04121180963557e-14
y51_r3 -1.3905543383430086e-14
SH12_r3 -1.2122247650125928e-14
SL12_r3 -0.0
y52_r3 -4.449218771185315e-14
y53_r3 -1.4876988529977098e-14
y54_r3 1.021405182655144e-14
y55_r3 -3.430589146091734e-14
SH13_r3 -3.3861802251067274e-14
SL13_r3 -0.0
y56_r3 0.0
y57_r3 -5.3290705182007514e-14
y58_r3 0.0
y59_r3 -0.0
SH14_r3 0.0
SL14_r3 -0.0
y60_r3 1.0
y61_r3 -0.0
y62_r3 9.85878045867139e-14
y63_r3 1.0000000000001048
SH15_r3 1.0000000000001048
SL15_r3 -0.0
y0_r4 0.9999999999999672
y1_r4 0.0
y2_r4 3.275157922644212e-14
y3_r4 1.0
SH0_r4 1.0
SL0_r4 -0.0
y4_r4 2.3092638912203256e-14
y5_r4 0.0
y6_r4 1.0474954237338352e-13
y7_r4 2.275957200481571e-14
SH1_r4 1.0474954237338352e-13
SL1_r4 -0.0
y8_r4 -2.4868995751603507e-14
y9_r4 -0.0
y10_r4 -5.275641035140666e-14
y11_r4 -2.3314683517128287e-14
SH2_r4 -2.4202861936828413e-14
SL2_r4 -0.0
y12_r4 0.9999999999999672
y13_r4 0.0
y14_r4 3.4916514124461173e-14
y15_r4 1.0000000000000002
SH3_r4 1.0
SL3_r4 -0.0
y16_r4 -0.0
y17_r4 0.0
y18_r4 0.0
y19_r4 -0.0
SH4_r4 0.0
SL4_r4 -0.0
y20_r4 -0.0
y21_r4 8.548717289613705e-15
y22_r4 -2.42861286636753e-16
y23_r4 -0.0
SH5_r4 -2.706168622523819e-16
SL5_r4 -1.6514567491299204e-15
y24_r4 -0.0
y25_r4 2.1538326677728037e-14
y26_r4 -0.0
y27_r4 0.0
SH6_r4 -0.0
SL6_r4 -1.2989609388114332e-14
y28_r4 -0.0
y29_r4 -6.128431095930864e-14
y30_r4 0.0
y31_r4 -0.0
SH7_r4 6.661338147750939e-16
SL7_r4 -0.0
y32_r4 -0.0
y33_r4 3.836930773104541e-13
y34_r4 -1.0061396160665481e-15
y35_r4 0.0
SH8_r4 -0.0
SL8_r4 -0.0
y36_r4 -0.0
y37_r4 -0.0
y38_r4 -0.0
y39_r4 -0.0
SH9_r4 -5.2909066017292616e-17
SL9_r4 -0.0
y40_r4 2.433608869978343e-13
y41_r4 -3.836930773104541e-13
y42_r4 -0.0
y43_r4 -0.0
SH10_r4 -0.0
SL10_r4 -0.0
y44_r4 -0.0
y45_r4 -1.1102230246251565e-15
y46_r4 0.0
y47_r4 0.0
SH11_r4 7.965850201685498e-15
SL11_r4 -0.0
y48_r4 1.0
y49_r4 -5.773159728050814e-15
y50_r4 -0.0
y51_r4 1.0
SH12_r4 1.0
SL12_r4 -0.0
y52_r4 -0.0
y53_r4 -0.0
y54_r4 -0.0
y55_r4 -0.0
SH13_r4 -0.0
SL13_r4 -0.0
y56_r4 -0.0
y57_r4 -0.0
y58_r4 -0.0
y59_r4 -0.0
SH14_r4 -0.0
SL14_r4 -0.0
y60_r4 1.0000000000000555
y61_r4 -5.773159728050814e-15
y62_r4 0.0
y63_r4 1.0
SH15_r4 1.0
SL15_r4 -5.240252676230739e-14
y0_r5 -0.0
y1_r5 1.0
y2_r5 -0.0
y3_r5 -0.0
SH0_r5 0.9999999999999672
SL0_r5 -0.0
y4_r5 -0.0
y5_r5 -0.0
y6_r5 -0.0
y7_r5 -0.0
SH1_r5 -0.0
SL1_r5 -0.0
y8_r5 -0.0
y9_r5 0.0
y10_r5 -0.0
y11_r5 2.4158453015843406e-13
SH2_r5 -0.0
SL2_r5 -0.0
y12_r5 0.0
y13_r5 1.0
y14_r5 -0.0
y15_r5 -0.0
SH3_r5 1.0
SL3_r5 0.0
y16_r5 -0.0
y17_r5 0.0
y18_r5 -0.0
y19_r5 0.0
SH4_r5 0.0
SL4_r5 -0.0
y20_r5 -2.90878432451791e-14
y21_r5 0.0
y22_r5 -0.0
y23_r5 0.0
SH5_r5 -0.0
SL5_r5 -0.0
y24_r5 -0.0
y25_r5 0.0
y26_r5 -0.0
y27_r5 0.0
SH6_r5 -0.0
SL6_r5 -0.0
y28_r5 -2.90878432451791e-14
y29_r5 -0.0
y30_r5 -0.0
y31_r5 -0.0
SH7_r5 -5.773159728050814e-15
SL7_r5 -0.0
y32_r5 0.0
y33_r5 0.0
y34_r5 0.0
y35_r5 -5.551115123125783e-17
SH8_r5 3.275157922644212e-14
SL8_r5 -0.0
y36_r5 2.636779683484747e-16
y37_r5 0.0
y38_r5 -0.0
y39_r5 0.0
SH9_r5 -0.0
SL9_r5 1.5612511283791264e-17
y40_r5 2.3175905639050143e-15
y41_r5 0.0
y42_r5 0.0
y43_r5 -2.220446049250313e-16
SH10_r5 -0.0
SL10_r5 -0.0
y44_r5 -0.0
y45_r5 -0.0
y46_r5 0.0
y47_r5 0.0
SH11_r5 -0.0
SL11_r5 0.0
y48_r5 -2.220446049250313e-16
y49_r5 0.9999999999999978
y50_r5 8.881784197001252e-16
y51_r5 0.0
SH12_r5 1.0
SL12_r5 -0.0
y52_r5 -0.0
y53_r5 0.0
y54_r5 -0.0
y55_r5 -0.0
SH13_r5 0.0
SL13_r5 -0.0
y56_r5 -0.0
y57_r5 -0.0
y58_r5 -8.881784197001252e-16
y59_r5 -0.0
SH14_r5 0.0
SL14_r5 -0.0
y60_r5 -2.220446049250313e-16
y61_r5 0.9999999999999991
y62_r5 4.440892098500626e-16
y63_r5 -2.220446049250313e-16
SH15_r5 1.0
SL15_r5 1.3322676295501878e-15
y0_r6 -0.0
y1_r6 -0.0
y2_r6 -0.0
y3_r6 -0.0
SH0_r6 0.0
SL0_r6 -0.0
y4_r6 -0.0
y5_r6 -0.0
y6_r6 -0.0
y7_r6 -1.1102230246251565e-16
SH1_r6 -0.0
SL1_r6 -0.0
y8_r6 -0.0
y9_r6 -0.0
y10_r6 -0.0
y11_r6 -0.0
SH2_r6 0.0
SL2_r6 -0.0
y12_r6 -0.0
y13_r6 -2.220446049250313e-16
y14_r6 -0.0
y15_r6 -0.0
SH3_r6 -0.0
SL3_r6 -0.0
y16_r6 -0.0
y17_r6 1.0
y18_r6 0.0
y19_r6 0.0
SH4_r6 1.0
SL4_r6 -0.0
y20_r6 -0.0
y21_r6 0.0
y22_r6 0.0
y23_r6 -0.0
SH5_r6 -0.0
SL5_r6 -0.0
y24_r6 -0.0
y25_r6 -0.0
y26_r6 0.0
y27_r6 -0.0
SH6_r6 -0.0
SL6_r6 -0.0
y28_r6 -0.0
y29_r6 1.0
y30_r6 0.0
y31_r6 -0.0
SH7_r6 0.9999999999999987
SL7_r6 -0.0
y32_r6 -0.0
y33_r6 -0.0
y34_r6 -0.0
y35_r6 -0.0
SH8_r6 -0.0
SL8_r6 -0.0
y36_r6 -0.0
y37_r6 0.0
y38_r6 0.0
y39_r6 -0.0
SH9_r6 -0.0
SL9_r6 -0.0
y40_r6 -0.0
y41_r6 -0.0
y42_r6 0.0
y43_r6 -0.0
SH10_r6 0.0
SL10_r6 -0.0
y44_r6 -0.0
y45_r6 4.440892098500626e-16
y46_r6 -0.0
y47_r6 -0.0
SH11_r6 8.881784197001252e-16
SL11_r6 -0.0
y48_r6 -0.0
y49_r6 0.0
y50_r6 -0.0
y51_r6 -0.0
SH12_r6 0.0
SL12_r6 -0.0
y52_r6 -0.0
y53_r6 -0.0
y54_r6 -0.0
y55_r6 -0.0
SH13_r6 0.0
SL13_r6 -0.0
y56_r6 -0.0
y57_r6 -0.0
y58_r6 0.0
y59_r6 -0.0
SH14_r6 -0.0
SL14_r6 -0.0
y60_r6 -1.7763568394002505e-15
y61_r6 -1.7763568394002505e-15
y62_r6 -0.0
y63_r6 0.0
SH15_r6 -0.0
SL15_r6 -0.0
y0_r7 -0.0
y1_r7 -0.0
y2_r7 -0.0
y3_r7 -0.0
SH0_r7 -0.0
SL0_r7 -0.0
y4_r7 -0.0
y5_r7 -0.0
y6_r7 -0.0
y7_r7 -0.0
SH1_r7 -0.0
SL1_r7 -0.0
y8_r7 -0.0
y9_r7 -0.0
y10_r7 -0.0
y11_r7 -0.0
SH2_r7 -0.0
SL2_r7 -0.0
y12_r7 -0.0
y13_r7 -0.0
y14_r7 -0.0
y15_r7 0.0
SH3_r7 -0.0
SL3_r7 -0.0
y16_r7 -0.0
y17_r7 2.220446049250313e-16
y18_r7 -0.0
y19_r7 -0.0
SH4_r7 -0.0
SL4_r7 -0.0
y20_r7 -0.0
y21_r7 1.0
y22_r7 0.0
y23_r7 -0.0
SH5_r7 1.0
SL5_r7 -0.0
y24_r7 -0.0
y25_r7 -0.0
y26_r7 -0.0
y27_r7 -0.0
SH6_r7 1.6653345369377348e-16
SL6_r7 -0.0
y28_r7 -0.0
y29_r7 -0.0
y30_r7 -0.0
y31_r7 -0.0
SH7_r7 -0.0
SL7_r7 -0.0
y32_r7 -0.0
y33_r7 -0.0
y34_r7 -0.0
y35_r7 -0.0
SH8_r7 -0.0
SL8_r7 -0.0
y36_r7 -0.0
y37_r7 -0.0
y38_r7 0.0
y39_r7 -0.0
SH9_r7 -0.0
SL9_r7 -0.0
y40_r7 -0.0
y41_r7 0.0
y42_r7 -0.0
y43_r7 -0.0
SH10_r7 0.0
SL10_r7 -0.0
y44_r7 -0.0
y45_r7 -0.0
y46_r7 -0.0
y47_r7 -0.0
SH11_r7 -0.0
SL11_r7 -0.0
y48_r7 -0.0
y49_r7 -0.0
y50_r7 -0.0
y51_r7 -0.0
SH12_r7 0.0
SL12_r7 1.1102230246251565e-16
y52_r7 -0.0
y53_r7 0.0
y54_r7 -0.0
y55_r7 -0.0
SH13_r7 -0.0
SL13_r7 -0.0
y56_r7 -0.0
y57_r7 -0.0
y58_r7 -0.0
y59_r7 -0.0
SH14_r7 -0.0
SL14_r7 -0.0
y60_r7 -0.0
y61_r7 0.0
y62_r7 -0.0
y63_r7 -0.0
SH15_r7 -0.0
SL15_r7 -0.0
y0_r8 -0.0
y1_r8 0.0
y2_r8 -0.0
y3_r8 -0.0
SH0_r8 -0.0
SL0_r8 -0.0
y4_r8 0.0
y5_r8 0.0
y6_r8 -0.0
y7_r8 0.0
SH1_r8 -0.0
SL1_r8 -0.0
y8_r8 0.0
y9_r8 -0.0
y10_r8 0.0
y11_r8 -0.0
SH2_r8 -0.0
SL2_r8 -0.0
y12_r8 0.0
y13_r8 -0.0
y14_r8 -0.0
y15_r8 -0.0
SH3_r8 -0.0
SL3_r8 -0.0
y16_r8 -0.0
y17_r8 3.191891195797325e-16
y18_r8 0.0
y19_r8 -0.0
SH4_r8 -0.0
SL4_r8 -0.0
y20_r8 1.0
y21_r8 1.0
y22_r8 0.0
y23_r8 -1.1102230246251565e-16
SH5_r8 1.0
SL5_r8 0.9999999999999978
y24_r8 -0.0
y25_r8 -0.0
y26_r8 -0.0
y27_r8 -0.0
SH6_r8 0.0
SL6_r8 -0.0
y28_r8 -0.0
y29_r8 -0.0
y30_r8 -0.0
y31_r8 -0.0
SH7_r8 -0.0
SL7_r8 -0.0
y32_r8 -0.0
y33_r8 0.0
y34_r8 0.0
y35_r8 -0.0
SH8_r8 -0.0
SL8_r8 -0.0
y36_r8 -0.0
y37_r8 0.0
y38_r8 -0.0
y39_r8 0.0
SH9_r8 -0.0
SL9_r8 -0.0
y40_r8 0.0
y41_r8 -0.0
y42_r8 0.0
y43_r8 -0.0
SH10_r8 -0.0
SL10_r8 -0.0
y44_r8 -0.0
y45_r8 -0.0
y46_r8 -0.0
y47_r8 -0.0
SH11_r8 -0.0
SL11_r8 -0.0
y48_r8 -0.0
y49_r8 -0.0
y50_r8 0.0
y51_r8 0.0
SH12_r8 -0.0
SL12_r8 -0.0
y52_r8 0.0
y53_r8 0.0
y54_r8 -0.0
y55_r8 0.0
SH13_r8 -0.0
SL13_r8 -0.0
y56_r8 0.0
y57_r8 -0.0
y58_r8 -0.0
y59_r8 -0.0
SH14_r8 -0.0
SL14_r8 -0.0
y60_r8 -0.0
y61_r8 -0.0
y62_r8 -0.0
y63_r8 -0.0
SH15_r8 -0.0
SL15_r8 -0.0
y0_r9 -0.0
y1_r9 -0.0
y2_r9 -0.0
y3_r9 0.0
SH0_r9 0.0
SL0_r9 -0.0
y4_r9 -0.0
y5_r9 1.0
y6_r9 0.0
y7_r9 1.0
SH1_r9 1.0
SL1_r9 -0.0
y8_r9 0.0
y9_r9 -0.0
y10_r9 -0.0
y11_r9 -0.0
SH2_r9 0.0
SL2_r9 -0.0
y12_r9 -0.0
y13_r9 -0.0
y14_r9 -0.0
y15_r9 -0.0
SH3_r9 -0.0
SL3_r9 0.0
y16_r9 -0.0
y17_r9 0.0
y18_r9 0.0
y19_r9 -0.0
SH4_r9 -0.0
SL4_r9 -0.0
y20_r9 -0.0
y21_r9 0.9999999999999997
y22_r9 -1.6653345369377348e-16
y23_r9 0.9999999999999998
SH5_r9 1.0
SL5_r9 -0.0
y24_r9 -0.0
y25_r9 -0.0
y26_r9 -0.0
y27_r9 -0.0
SH6_r9 0.0
SL6_r9 -0.0
y28_r9 -0.0
y29_r9 -0.0
y30_r9 -0.0
y31_r9 -0.0
SH7_r9 -0.0
SL7_r9 -0.0
y32_r9 -0.0
y33_r9 0.0
y34_r9 -0.0
y35_r9 -0.0
SH8_r9 0.0
SL8_r9 -0.0
y36_r9 0.0
y37_r9 0.0
y38_r9 -0.0
y39_r9 0.0
SH9_r9 -0.0
SL9_r9 -0.0
y40_r9 0.0
y41_r9 -0.0
y42_r9 -0.0
y43_r9 -0.0
SH10_r9 -0.0
SL10_r9 -0.0
y44_r9 -0.0
y45_r9 -0.0
y46_r9 -0.0
y47_r9 -0.0
SH11_r9 0.0
SL11_r9 -0.0
y48_r9 0.0
y49_r9 -0.0
y50_r9 0.0
y51_r9 -0.0
SH12_r9 -0.0
SL12_r9 -0.0
y52_r9 0.0
y53_r9 0.0
y54_r9 -0.0
y55_r9 -0.0
SH13_r9 -0.0
SL13_r9 -1.1102230246251565e-16
y56_r9 0.0
y57_r9 -0.0
y58_r9 -0.0
y59_r9 -0.0
SH14_r9 -0.0
SL14_r9 -0.0
y60_r9 0.0
y61_r9 -0.0
y62_r9 -0.0
y63_r9 -0.0
SH15_r9 -0.0
SL15_r9 -0.0
